(set-logic QF_S)
(declare-fun var_0xINPUT_388457 () String)
(assert (and (= (len var_0xINPUT_388457) 0) (= (len var_0xINPUT_388457) 0) (not (= var_0xINPUT_388457 "Example:")) (not (= var_0xINPUT_388457 "cm6AfB9De3"))))
(check-sat var_0xINPUT_388457)